32      4       
10      10      10      10      
0       0       0       0       0       2       2       5       
9       1       1       0       1       1       3       
10      4       4       0       3       1       4       
2       4       2       0       2       1       6       
10      3       3       0       5       1       6       
7       6       4       0       6       1       7       
8       0       2       1       3       1       8       
1       2       0       10      1       1       9       
2       0       4       4       5       2       10      21      
6       5       8       0       6       1       11      
5       0       7       4       6       3       12      16      20      
10      0       2       1       4       2       13      31      
6       5       0       4       6       2       14      19      
6       4       5       2       0       1       15      
1       0       5       4       5       2       17      30      
6       5       5       0       6       2       17      31      
5       4       5       0       4       2       18      29      
3       3       5       0       4       1       22      
9       0       2       7       6       1       22      
10      3       7       5       0       1       22      
6       6       0       5       5       1       22      
9       3       0       5       3       1       23      
3       6       2       0       3       2       24      28      
5       3       0       5       4       1       25      
9       6       1       0       1       1       26      
6       4       5       3       0       1       27      
5       0       4       3       4       1       32      
7       5       4       4       0       1       32      
6       0       5       1       5       1       32      
8       3       4       5       0       1       32      
7       3       0       3       2       1       32      
0       0       0       0       0       0       
